(set-info :smt-lib-version 2.6)
(set-logic ALL)
(declare-const GEN1 Int)
(declare-const GEN2 Int)
(declare-const GEN3 Int)
(declare-const GEN4 Int)
(declare-const GEN5 Int)
(declare-const GEN6 Int)
(declare-const GEN7 Int)
(declare-const GEN8 Int)
(declare-const GEN9 Int)
(declare-const GEN10 Int)
(declare-const GEN11 Int)
(declare-const GEN12 Int)
(declare-const GEN13 Int)
(declare-const GEN14 Int)
(declare-const GEN15 Int)
(declare-const GEN16 Int)
(declare-const GEN17 Int)
(declare-const GEN18 Int)
(declare-const GEN19 Int)
(declare-const GEN20 Int)
(declare-const GEN21 Int)
(declare-const GEN22 Int)
(declare-const GEN23 Int)
(declare-const GEN24 Int)
(declare-const GEN25 Int)
(declare-const GEN26 Int)
(declare-const GEN27 Int)
(declare-const GEN28 Int)
(declare-const GEN29 Int)
(declare-const GEN30 Int)
(declare-const GEN31 Int)
(declare-const GEN32 Int)
(declare-const GEN33 Int)
(declare-const GEN34 Int)
(declare-const GEN35 Int)
(declare-const GEN36 Int)
(declare-const GEN37 Int)
(declare-const GEN38 Int)
(declare-const GEN39 Int)
(declare-const GEN40 Int)
(declare-const GEN41 Int)
(declare-const GEN42 Int)
(declare-const GEN43 Int)
(declare-const GEN44 Int)
(declare-const GEN45 Int)
(declare-const GEN46 Int)
(declare-const GEN47 Int)
(declare-const GEN48 Int)
(declare-const GEN49 Int)
(declare-const GEN50 Int)
(declare-const GEN51 Int)
(declare-const GEN52 Int)
(declare-const GEN53 Int)
(declare-const GEN54 Int)
(declare-const GEN55 Int)
(declare-const GEN56 Int)
(declare-const GEN57 Int)
(declare-const GEN58 Int)
(declare-const GEN59 Int)
(declare-const GEN60 Int)
(declare-const GEN61 Int)
(declare-const GEN62 Int)
(declare-const GEN63 Int)
(declare-const GEN64 Int)
(declare-const GEN65 Int)
(declare-const GEN66 Int)
(declare-const GEN67 Int)
(declare-const GEN68 Int)
(declare-const GEN69 Int)
(declare-const GEN70 Int)
(declare-const GEN71 Int)
(declare-const GEN72 Int)
(declare-const GEN73 Int)
(declare-const GEN74 Int)
(declare-const GEN75 Int)
(declare-const GEN76 Int)
(declare-const GEN77 Int)
(declare-const GEN78 Int)
(declare-const GEN79 Int)
(declare-const GEN80 Int)
(declare-const GEN81 Int)
(declare-const GEN82 Int)
(declare-const GEN83 Int)
(declare-const GEN84 Int)
(declare-const GEN85 Int)
(declare-const GEN86 Int)
(declare-const GEN87 Int)
(declare-const GEN88 Int)
(declare-const GEN89 Int)
(declare-const GEN90 Int)
(declare-const GEN91 Int)
(declare-const GEN92 Int)
(declare-const GEN93 Int)
(declare-const GEN94 Int)
(declare-const GEN95 Int)
(declare-const GEN96 Int)
(declare-const GEN97 Int)
(declare-const GEN98 Int)
(declare-const GEN99 Int)
(declare-const GEN100 Int)
(declare-const GEN101 Int)
(declare-const GEN102 Int)
(declare-const GEN103 Int)
(declare-const GEN104 Int)
(declare-const GEN105 Int)
(declare-const GEN106 Int)
(declare-const GEN107 Int)
(declare-const GEN108 Int)
(declare-const GEN109 Int)
(declare-const GEN110 Int)
(declare-const GEN111 Int)
(declare-const GEN112 Int)
(declare-const GEN113 Int)
(declare-const GEN114 Int)
(declare-const GEN115 Int)
(declare-const GEN116 Int)
(declare-const GEN117 Int)
(declare-const GEN118 Int)
(declare-const GEN119 Int)
(declare-const GEN120 Int)
(declare-const GEN121 Int)
(declare-const GEN122 Int)
(declare-const GEN123 Int)
(declare-const GEN124 Int)
(declare-const GEN125 Int)
(declare-const GEN126 Int)
(declare-const BAV127 Bool)
(declare-const BAV128 Bool)
(declare-const BAV129 Bool)
(declare-const BAV130 Bool)
(declare-const BAV131 Bool)
(declare-const BAV132 Bool)
(declare-const BAV133 Bool)
(declare-const BAV134 Bool)
(declare-const BAV135 Bool)
(declare-const BAV136 Bool)
(declare-const BAV137 Bool)
(declare-const BAV138 Bool)
(declare-const BAV139 Bool)
(declare-const BAV140 Bool)
(declare-const BAV141 Bool)
(declare-const BAV142 Bool)
(declare-const BAV143 Bool)
(declare-const BAV144 Bool)
(declare-const BAV145 Bool)
(declare-const BAV146 Bool)
(declare-const BAV147 Bool)
(declare-const BAV148 Bool)
(declare-const BAV149 Bool)
(declare-const BAV150 Bool)
(set-info :category "crafted")
(declare-fun x_0 () Int)
(declare-fun x_1 () Int)
(declare-fun x_2 () Int)
(declare-fun x_3 () Int)
(declare-fun x_4 () Int)
(declare-fun x_5 () Int)
(declare-fun x_6 () Int)
(declare-fun x_7 () Int)
(declare-fun x_8 () Int)
(declare-fun x_9 () Int)
(declare-fun x_10 () Int)
(declare-fun x_11 () Int)
(declare-fun x_12 () Int)
(declare-fun x_13 () Int)
(declare-fun x_14 () Int)
(declare-fun x_15 () Int)
(declare-fun x_16 () Int)
(assert (>= x_0 GEN1))
(assert (>= x_1 GEN2))
(assert (>= x_2 GEN3))
(assert (>= x_3 GEN4))
(assert (>= x_4 GEN5))
(assert (>= x_5 GEN6))
(assert (>= x_6 GEN7))
(assert (>= x_7 GEN8))
(assert (>= x_8 GEN9))
(assert (>= x_9 GEN10))
(assert (>= x_10 GEN11))
(assert (>= x_11 GEN12))
(assert (>= x_12 GEN13))
(assert (>= x_13 GEN14))
(assert (>= x_14 GEN15))
(assert (>= x_15 GEN16))
(assert (>= x_16 GEN17))
(assert (<= (+ (* GEN18 x_0) (* GEN19 x_1) (* GEN20 x_2) (* GEN21 x_3) (* GEN22 x_4) (* GEN23 x_5) (* GEN24 x_6) (* GEN25 x_7) (* GEN26 x_8) (* GEN27 x_9) (* GEN28 x_10) (* (- GEN29) x_11) (* GEN30 x_12) (* GEN31 x_13) (* GEN32 x_14) (* GEN33 x_15) (* GEN34 x_16)) GEN35))
(assert (<= (+ (* GEN36 x_0) (* GEN37 x_1) (* GEN38 x_2) (* GEN39 x_3) (* GEN40 x_4) (* GEN41 x_5) (* GEN42 x_6) (* GEN43 x_7) (* GEN44 x_8) (* GEN45 x_9) (* GEN46 x_10) (* GEN47 x_11) (* (- GEN48) x_12) (* GEN49 x_13) (* GEN50 x_14) (* GEN51 x_15) (* GEN52 x_16)) GEN53))
(assert (<= (+ (* GEN54 x_0) (* GEN55 x_1) (* GEN56 x_2) (* GEN57 x_3) (* GEN58 x_4) (* GEN59 x_5) (* GEN60 x_6) (* GEN61 x_7) (* GEN62 x_8) (* GEN63 x_9) (* GEN64 x_10) (* GEN65 x_11) (* GEN66 x_12) (* (- GEN67) x_13) (* GEN68 x_14) (* GEN69 x_15) (* GEN70 x_16)) GEN71))
(assert (<= (+ (* GEN72 x_0) (* GEN73 x_1) (* GEN74 x_2) (* GEN75 x_3) (* GEN76 x_4) (* GEN77 x_5) (* GEN78 x_6) (* GEN79 x_7) (* GEN80 x_8) (* GEN81 x_9) (* GEN82 x_10) (* GEN83 x_11) (* GEN84 x_12) (* GEN85 x_13) (* (- GEN86) x_14) (* GEN87 x_15) (* GEN88 x_16)) GEN89))
(assert (<= (+ (* GEN90 x_0) (* GEN91 x_1) (* GEN92 x_2) (* GEN93 x_3) (* GEN94 x_4) (* GEN95 x_5) (* GEN96 x_6) (* GEN97 x_7) (* GEN98 x_8) (* GEN99 x_9) (* GEN100 x_10) (* GEN101 x_11) (* GEN102 x_12) (* GEN103 x_13) (* GEN104 x_14) (* (- GEN105) x_15) (* GEN106 x_16)) GEN107))
(assert (<= (+ (* GEN108 x_0) (* GEN109 x_1) (* GEN110 x_2) (* GEN111 x_3) (* GEN112 x_4) (* GEN113 x_5) (* GEN114 x_6) (* GEN115 x_7) (* GEN116 x_8) (* GEN117 x_9) (* GEN118 x_10) (* GEN119 x_11) (* GEN120 x_12) (* GEN121 x_13) (* GEN122 x_14) (* GEN123 x_15) (* (- GEN124) x_16)) GEN125))
(assert (>= (+ x_0 x_1 x_2 x_3 x_4 x_5 x_6 x_7 x_8 x_9 x_10 x_11 x_12 x_13 x_14 x_15 x_16) GEN126))
(assert (= BAV127 (>= x_0 GEN1)))
(assert (= BAV128 (>= x_1 GEN2)))
(assert (= BAV129 (>= x_2 GEN3)))
(assert (= BAV130 (>= x_3 GEN4)))
(assert (= BAV131 (>= x_4 GEN5)))
(assert (= BAV132 (>= x_5 GEN6)))
(assert (= BAV133 (>= x_6 GEN7)))
(assert (= BAV134 (>= x_7 GEN8)))
(assert (= BAV135 (>= x_8 GEN9)))
(assert (= BAV136 (>= x_9 GEN10)))
(assert (= BAV137 (>= x_10 GEN11)))
(assert (= BAV138 (>= x_11 GEN12)))
(assert (= BAV139 (>= x_12 GEN13)))
(assert (= BAV140 (>= x_13 GEN14)))
(assert (= BAV141 (>= x_14 GEN15)))
(assert (= BAV142 (>= x_15 GEN16)))
(assert (= BAV143 (>= x_16 GEN17)))
(assert (= BAV144 (<= (+ (* GEN18 x_0) (* GEN19 x_1) (* GEN20 x_2) (* GEN21 x_3) (* GEN22 x_4) (* GEN23 x_5) (* GEN24 x_6) (* GEN25 x_7) (* GEN26 x_8) (* GEN27 x_9) (* GEN28 x_10) (* (- GEN29) x_11) (* GEN30 x_12) (* GEN31 x_13) (* GEN32 x_14) (* GEN33 x_15) (* GEN34 x_16)) GEN35)))
(assert (= BAV145 (<= (+ (* GEN36 x_0) (* GEN37 x_1) (* GEN38 x_2) (* GEN39 x_3) (* GEN40 x_4) (* GEN41 x_5) (* GEN42 x_6) (* GEN43 x_7) (* GEN44 x_8) (* GEN45 x_9) (* GEN46 x_10) (* GEN47 x_11) (* (- GEN48) x_12) (* GEN49 x_13) (* GEN50 x_14) (* GEN51 x_15) (* GEN52 x_16)) GEN53)))
(assert (= BAV146 (<= (+ (* GEN54 x_0) (* GEN55 x_1) (* GEN56 x_2) (* GEN57 x_3) (* GEN58 x_4) (* GEN59 x_5) (* GEN60 x_6) (* GEN61 x_7) (* GEN62 x_8) (* GEN63 x_9) (* GEN64 x_10) (* GEN65 x_11) (* GEN66 x_12) (* (- GEN67) x_13) (* GEN68 x_14) (* GEN69 x_15) (* GEN70 x_16)) GEN71)))
(assert (= BAV147 (<= (+ (* GEN72 x_0) (* GEN73 x_1) (* GEN74 x_2) (* GEN75 x_3) (* GEN76 x_4) (* GEN77 x_5) (* GEN78 x_6) (* GEN79 x_7) (* GEN80 x_8) (* GEN81 x_9) (* GEN82 x_10) (* GEN83 x_11) (* GEN84 x_12) (* GEN85 x_13) (* (- GEN86) x_14) (* GEN87 x_15) (* GEN88 x_16)) GEN89)))
(assert (= BAV148 (<= (+ (* GEN90 x_0) (* GEN91 x_1) (* GEN92 x_2) (* GEN93 x_3) (* GEN94 x_4) (* GEN95 x_5) (* GEN96 x_6) (* GEN97 x_7) (* GEN98 x_8) (* GEN99 x_9) (* GEN100 x_10) (* GEN101 x_11) (* GEN102 x_12) (* GEN103 x_13) (* GEN104 x_14) (* (- GEN105) x_15) (* GEN106 x_16)) GEN107)))
(assert (= BAV149 (<= (+ (* GEN108 x_0) (* GEN109 x_1) (* GEN110 x_2) (* GEN111 x_3) (* GEN112 x_4) (* GEN113 x_5) (* GEN114 x_6) (* GEN115 x_7) (* GEN116 x_8) (* GEN117 x_9) (* GEN118 x_10) (* GEN119 x_11) (* GEN120 x_12) (* GEN121 x_13) (* GEN122 x_14) (* GEN123 x_15) (* (- GEN124) x_16)) GEN125)))
(assert (= BAV150 (>= (+ x_0 x_1 x_2 x_3 x_4 x_5 x_6 x_7 x_8 x_9 x_10 x_11 x_12 x_13 x_14 x_15 x_16) GEN126)))
(check-sat)
(exit)